z3_origin/DDC_ProveIneq_ISSAC05_FibonacciPoly_b.txt
unsat
(:max-memory         18.52
 :memory             18.43
 :nlsat-arith-var    4
 :nlsat-atoms        27
 :nlsat-bool-var     5
 :nlsat-clauses      9
 :nlsat-conflicts    48
 :nlsat-decisions    39
 :nlsat-propagations 148
 :nlsat-stages       26
 :num-allocs         62820
 :rlimit-count       13674
 :time               0.01
 :total-time         0.02)
